NAME : a280
COMMENT : drilling problem (Ludwig)
TYPE : TSP
DIMENSION: 10
EDGE_WEIGHT_TYPE : EUC_2D
NODE_COORD_SECTION
1 269 267
2 193 256
3 211 142
4 129 273
5 21 119
6 284 37
7 98 224
8 215 270
9 113 226
10 91 80
